(set-option :produce-models true)
(set-logic QF_LRA)
(set-info :notes | Strip-packing problem.|)
(declare-fun x0 () Real)
(declare-fun y0 () Real)
(declare-fun x1 () Real)
(declare-fun y1 () Real)
(declare-fun x2 () Real)
(declare-fun y2 () Real)
(declare-fun x3 () Real)
(declare-fun y3 () Real)
(declare-fun x4 () Real)
(declare-fun y4 () Real)
(declare-fun x5 () Real)
(declare-fun y5 () Real)
(declare-fun x6 () Real)
(declare-fun y6 () Real)
(declare-fun x7 () Real)
(declare-fun y7 () Real)
(declare-fun x8 () Real)
(declare-fun y8 () Real)
(declare-fun x9 () Real)
(declare-fun y9 () Real)
(declare-fun x10 () Real)
(declare-fun y10 () Real)
(declare-fun x11 () Real)
(declare-fun y11 () Real)
(declare-fun z () Real)
(declare-fun c () Real)
(assert (and (= c z) (and (>= x0 0) 
(and (>= y0 0) 
(and (>= x1 0) 
(and (>= y1 0) 
(and (>= x2 0) 
(and (>= y2 0) 
(and (>= x3 0) 
(and (>= y3 0) 
(and (>= x4 0) 
(and (>= y4 0) 
(and (>= x5 0) 
(and (>= y5 0) 
(and (>= x6 0) 
(and (>= y6 0) 
(and (>= x7 0) 
(and (>= y7 0) 
(and (>= x8 0) 
(and (>= y8 0) 
(and (>= x9 0) 
(and (>= y9 0) 
(and (>= x10 0) 
(and (>= y10 0) 
(and (>= x11 0) 
(and (>= y11 0) 
(and (>= z 0) 
(and (>= c 0) 
(and (<= (+ x0 0.4270593308) z) 
(and (<= 0.8306219129 y0) 
(and (<= y0 1.73205080757) 
(and (<= x0 (- 2.2095192824 0.4270593308)) 
(and (>= x0 0) 
(and (<= (+ x1 0.7913474277) z) 
(and (<= 0.6830960168 y1) 
(and (<= y1 1.73205080757) 
(and (<= x1 (- 2.2095192824 0.7913474277)) 
(and (>= x1 0) 
(and (<= (+ x2 0.8967522001) z) 
(and (<= 0.6808608512 y2) 
(and (<= y2 1.73205080757) 
(and (<= x2 (- 2.2095192824 0.8967522001)) 
(and (>= x2 0) 
(and (<= (+ x3 0.0913641551) z) 
(and (<= 0.6644311895 y3) 
(and (<= y3 1.73205080757) 
(and (<= x3 (- 2.2095192824 0.0913641551)) 
(and (>= x3 0) 
(and (<= (+ x4 0.049960892) z) 
(and (<= 0.5505992441 y4) 
(and (<= y4 1.73205080757) 
(and (<= x4 (- 2.2095192824 0.049960892)) 
(and (>= x4 0) 
(and (<= (+ x5 0.1944149297) z) 
(and (<= 0.5078864142 y5) 
(and (<= y5 1.73205080757) 
(and (<= x5 (- 2.2095192824 0.1944149297)) 
(and (>= x5 0) 
(and (<= (+ x6 0.5726282068) z) 
(and (<= 0.3723161629 y6) 
(and (<= y6 1.73205080757) 
(and (<= x6 (- 2.2095192824 0.5726282068)) 
(and (>= x6 0) 
(and (<= (+ x7 0.7401725525) z) 
(and (<= 0.3642741304 y7) 
(and (<= y7 1.73205080757) 
(and (<= x7 (- 2.2095192824 0.7401725525)) 
(and (>= x7 0) 
(and (<= (+ x8 0.0943603238) z) 
(and (<= 0.313745843 y8) 
(and (<= y8 1.73205080757) 
(and (<= x8 (- 2.2095192824 0.0943603238)) 
(and (>= x8 0) 
(and (<= (+ x9 0.0950543053) z) 
(and (<= 0.1278696259 y9) 
(and (<= y9 1.73205080757) 
(and (<= x9 (- 2.2095192824 0.0950543053)) 
(and (>= x9 0) 
(and (<= (+ x10 0.2334907436) z) 
(and (<= 0.0953837622 y10) 
(and (<= y10 1.73205080757) 
(and (<= x10 (- 2.2095192824 0.2334907436)) 
(and (>= x10 0) 
(and (<= (+ x11 0.588476938) z) 
(and (<= 0.0061619872 y11) 
(and (<= y11 1.73205080757) 
(and (<= x11 (- 2.2095192824 0.588476938)) 
(and (>= x11 0) 
(and (<= c 2.2095192824) 
(and (or (<= (+ x0 0.4270593308) x1) (or (<= (+ x1 0.7913474277) x0) (or (>= (- y0 0.8306219129) y1) (or (>= (- y1 0.6830960168) y0))))) 
(and (or (<= (+ x0 0.4270593308) x2) (or (<= (+ x2 0.8967522001) x0) (or (>= (- y0 0.8306219129) y2) (or (>= (- y2 0.6808608512) y0))))) 
(and (or (<= (+ x0 0.4270593308) x3) (or (<= (+ x3 0.0913641551) x0) (or (>= (- y0 0.8306219129) y3) (or (>= (- y3 0.6644311895) y0))))) 
(and (or (<= (+ x0 0.4270593308) x4) (or (<= (+ x4 0.049960892) x0) (or (>= (- y0 0.8306219129) y4) (or (>= (- y4 0.5505992441) y0))))) 
(and (or (<= (+ x0 0.4270593308) x5) (or (<= (+ x5 0.1944149297) x0) (or (>= (- y0 0.8306219129) y5) (or (>= (- y5 0.5078864142) y0))))) 
(and (or (<= (+ x0 0.4270593308) x6) (or (<= (+ x6 0.5726282068) x0) (or (>= (- y0 0.8306219129) y6) (or (>= (- y6 0.3723161629) y0))))) 
(and (or (<= (+ x0 0.4270593308) x7) (or (<= (+ x7 0.7401725525) x0) (or (>= (- y0 0.8306219129) y7) (or (>= (- y7 0.3642741304) y0))))) 
(and (or (<= (+ x0 0.4270593308) x8) (or (<= (+ x8 0.0943603238) x0) (or (>= (- y0 0.8306219129) y8) (or (>= (- y8 0.313745843) y0))))) 
(and (or (<= (+ x0 0.4270593308) x9) (or (<= (+ x9 0.0950543053) x0) (or (>= (- y0 0.8306219129) y9) (or (>= (- y9 0.1278696259) y0))))) 
(and (or (<= (+ x0 0.4270593308) x10) (or (<= (+ x10 0.2334907436) x0) (or (>= (- y0 0.8306219129) y10) (or (>= (- y10 0.0953837622) y0))))) 
(and (or (<= (+ x0 0.4270593308) x11) (or (<= (+ x11 0.588476938) x0) (or (>= (- y0 0.8306219129) y11) (or (>= (- y11 0.0061619872) y0))))) 
(and (or (<= (+ x1 0.7913474277) x2) (or (<= (+ x2 0.8967522001) x1) (or (>= (- y1 0.6830960168) y2) (or (>= (- y2 0.6808608512) y1))))) 
(and (or (<= (+ x1 0.7913474277) x3) (or (<= (+ x3 0.0913641551) x1) (or (>= (- y1 0.6830960168) y3) (or (>= (- y3 0.6644311895) y1))))) 
(and (or (<= (+ x1 0.7913474277) x4) (or (<= (+ x4 0.049960892) x1) (or (>= (- y1 0.6830960168) y4) (or (>= (- y4 0.5505992441) y1))))) 
(and (or (<= (+ x1 0.7913474277) x5) (or (<= (+ x5 0.1944149297) x1) (or (>= (- y1 0.6830960168) y5) (or (>= (- y5 0.5078864142) y1))))) 
(and (or (<= (+ x1 0.7913474277) x6) (or (<= (+ x6 0.5726282068) x1) (or (>= (- y1 0.6830960168) y6) (or (>= (- y6 0.3723161629) y1))))) 
(and (or (<= (+ x1 0.7913474277) x7) (or (<= (+ x7 0.7401725525) x1) (or (>= (- y1 0.6830960168) y7) (or (>= (- y7 0.3642741304) y1))))) 
(and (or (<= (+ x1 0.7913474277) x8) (or (<= (+ x8 0.0943603238) x1) (or (>= (- y1 0.6830960168) y8) (or (>= (- y8 0.313745843) y1))))) 
(and (or (<= (+ x1 0.7913474277) x9) (or (<= (+ x9 0.0950543053) x1) (or (>= (- y1 0.6830960168) y9) (or (>= (- y9 0.1278696259) y1))))) 
(and (or (<= (+ x1 0.7913474277) x10) (or (<= (+ x10 0.2334907436) x1) (or (>= (- y1 0.6830960168) y10) (or (>= (- y10 0.0953837622) y1))))) 
(and (or (<= (+ x1 0.7913474277) x11) (or (<= (+ x11 0.588476938) x1) (or (>= (- y1 0.6830960168) y11) (or (>= (- y11 0.0061619872) y1))))) 
(and (or (<= (+ x2 0.8967522001) x3) (or (<= (+ x3 0.0913641551) x2) (or (>= (- y2 0.6808608512) y3) (or (>= (- y3 0.6644311895) y2))))) 
(and (or (<= (+ x2 0.8967522001) x4) (or (<= (+ x4 0.049960892) x2) (or (>= (- y2 0.6808608512) y4) (or (>= (- y4 0.5505992441) y2))))) 
(and (or (<= (+ x2 0.8967522001) x5) (or (<= (+ x5 0.1944149297) x2) (or (>= (- y2 0.6808608512) y5) (or (>= (- y5 0.5078864142) y2))))) 
(and (or (<= (+ x2 0.8967522001) x6) (or (<= (+ x6 0.5726282068) x2) (or (>= (- y2 0.6808608512) y6) (or (>= (- y6 0.3723161629) y2))))) 
(and (or (<= (+ x2 0.8967522001) x7) (or (<= (+ x7 0.7401725525) x2) (or (>= (- y2 0.6808608512) y7) (or (>= (- y7 0.3642741304) y2))))) 
(and (or (<= (+ x2 0.8967522001) x8) (or (<= (+ x8 0.0943603238) x2) (or (>= (- y2 0.6808608512) y8) (or (>= (- y8 0.313745843) y2))))) 
(and (or (<= (+ x2 0.8967522001) x9) (or (<= (+ x9 0.0950543053) x2) (or (>= (- y2 0.6808608512) y9) (or (>= (- y9 0.1278696259) y2))))) 
(and (or (<= (+ x2 0.8967522001) x10) (or (<= (+ x10 0.2334907436) x2) (or (>= (- y2 0.6808608512) y10) (or (>= (- y10 0.0953837622) y2))))) 
(and (or (<= (+ x2 0.8967522001) x11) (or (<= (+ x11 0.588476938) x2) (or (>= (- y2 0.6808608512) y11) (or (>= (- y11 0.0061619872) y2))))) 
(and (or (<= (+ x3 0.0913641551) x4) (or (<= (+ x4 0.049960892) x3) (or (>= (- y3 0.6644311895) y4) (or (>= (- y4 0.5505992441) y3))))) 
(and (or (<= (+ x3 0.0913641551) x5) (or (<= (+ x5 0.1944149297) x3) (or (>= (- y3 0.6644311895) y5) (or (>= (- y5 0.5078864142) y3))))) 
(and (or (<= (+ x3 0.0913641551) x6) (or (<= (+ x6 0.5726282068) x3) (or (>= (- y3 0.6644311895) y6) (or (>= (- y6 0.3723161629) y3))))) 
(and (or (<= (+ x3 0.0913641551) x7) (or (<= (+ x7 0.7401725525) x3) (or (>= (- y3 0.6644311895) y7) (or (>= (- y7 0.3642741304) y3))))) 
(and (or (<= (+ x3 0.0913641551) x8) (or (<= (+ x8 0.0943603238) x3) (or (>= (- y3 0.6644311895) y8) (or (>= (- y8 0.313745843) y3))))) 
(and (or (<= (+ x3 0.0913641551) x9) (or (<= (+ x9 0.0950543053) x3) (or (>= (- y3 0.6644311895) y9) (or (>= (- y9 0.1278696259) y3))))) 
(and (or (<= (+ x3 0.0913641551) x10) (or (<= (+ x10 0.2334907436) x3) (or (>= (- y3 0.6644311895) y10) (or (>= (- y10 0.0953837622) y3))))) 
(and (or (<= (+ x3 0.0913641551) x11) (or (<= (+ x11 0.588476938) x3) (or (>= (- y3 0.6644311895) y11) (or (>= (- y11 0.0061619872) y3))))) 
(and (or (<= (+ x4 0.049960892) x5) (or (<= (+ x5 0.1944149297) x4) (or (>= (- y4 0.5505992441) y5) (or (>= (- y5 0.5078864142) y4))))) 
(and (or (<= (+ x4 0.049960892) x6) (or (<= (+ x6 0.5726282068) x4) (or (>= (- y4 0.5505992441) y6) (or (>= (- y6 0.3723161629) y4))))) 
(and (or (<= (+ x4 0.049960892) x7) (or (<= (+ x7 0.7401725525) x4) (or (>= (- y4 0.5505992441) y7) (or (>= (- y7 0.3642741304) y4))))) 
(and (or (<= (+ x4 0.049960892) x8) (or (<= (+ x8 0.0943603238) x4) (or (>= (- y4 0.5505992441) y8) (or (>= (- y8 0.313745843) y4))))) 
(and (or (<= (+ x4 0.049960892) x9) (or (<= (+ x9 0.0950543053) x4) (or (>= (- y4 0.5505992441) y9) (or (>= (- y9 0.1278696259) y4))))) 
(and (or (<= (+ x4 0.049960892) x10) (or (<= (+ x10 0.2334907436) x4) (or (>= (- y4 0.5505992441) y10) (or (>= (- y10 0.0953837622) y4))))) 
(and (or (<= (+ x4 0.049960892) x11) (or (<= (+ x11 0.588476938) x4) (or (>= (- y4 0.5505992441) y11) (or (>= (- y11 0.0061619872) y4))))) 
(and (or (<= (+ x5 0.1944149297) x6) (or (<= (+ x6 0.5726282068) x5) (or (>= (- y5 0.5078864142) y6) (or (>= (- y6 0.3723161629) y5))))) 
(and (or (<= (+ x5 0.1944149297) x7) (or (<= (+ x7 0.7401725525) x5) (or (>= (- y5 0.5078864142) y7) (or (>= (- y7 0.3642741304) y5))))) 
(and (or (<= (+ x5 0.1944149297) x8) (or (<= (+ x8 0.0943603238) x5) (or (>= (- y5 0.5078864142) y8) (or (>= (- y8 0.313745843) y5))))) 
(and (or (<= (+ x5 0.1944149297) x9) (or (<= (+ x9 0.0950543053) x5) (or (>= (- y5 0.5078864142) y9) (or (>= (- y9 0.1278696259) y5))))) 
(and (or (<= (+ x5 0.1944149297) x10) (or (<= (+ x10 0.2334907436) x5) (or (>= (- y5 0.5078864142) y10) (or (>= (- y10 0.0953837622) y5))))) 
(and (or (<= (+ x5 0.1944149297) x11) (or (<= (+ x11 0.588476938) x5) (or (>= (- y5 0.5078864142) y11) (or (>= (- y11 0.0061619872) y5))))) 
(and (or (<= (+ x6 0.5726282068) x7) (or (<= (+ x7 0.7401725525) x6) (or (>= (- y6 0.3723161629) y7) (or (>= (- y7 0.3642741304) y6))))) 
(and (or (<= (+ x6 0.5726282068) x8) (or (<= (+ x8 0.0943603238) x6) (or (>= (- y6 0.3723161629) y8) (or (>= (- y8 0.313745843) y6))))) 
(and (or (<= (+ x6 0.5726282068) x9) (or (<= (+ x9 0.0950543053) x6) (or (>= (- y6 0.3723161629) y9) (or (>= (- y9 0.1278696259) y6))))) 
(and (or (<= (+ x6 0.5726282068) x10) (or (<= (+ x10 0.2334907436) x6) (or (>= (- y6 0.3723161629) y10) (or (>= (- y10 0.0953837622) y6))))) 
(and (or (<= (+ x6 0.5726282068) x11) (or (<= (+ x11 0.588476938) x6) (or (>= (- y6 0.3723161629) y11) (or (>= (- y11 0.0061619872) y6))))) 
(and (or (<= (+ x7 0.7401725525) x8) (or (<= (+ x8 0.0943603238) x7) (or (>= (- y7 0.3642741304) y8) (or (>= (- y8 0.313745843) y7))))) 
(and (or (<= (+ x7 0.7401725525) x9) (or (<= (+ x9 0.0950543053) x7) (or (>= (- y7 0.3642741304) y9) (or (>= (- y9 0.1278696259) y7))))) 
(and (or (<= (+ x7 0.7401725525) x10) (or (<= (+ x10 0.2334907436) x7) (or (>= (- y7 0.3642741304) y10) (or (>= (- y10 0.0953837622) y7))))) 
(and (or (<= (+ x7 0.7401725525) x11) (or (<= (+ x11 0.588476938) x7) (or (>= (- y7 0.3642741304) y11) (or (>= (- y11 0.0061619872) y7))))) 
(and (or (<= (+ x8 0.0943603238) x9) (or (<= (+ x9 0.0950543053) x8) (or (>= (- y8 0.313745843) y9) (or (>= (- y9 0.1278696259) y8))))) 
(and (or (<= (+ x8 0.0943603238) x10) (or (<= (+ x10 0.2334907436) x8) (or (>= (- y8 0.313745843) y10) (or (>= (- y10 0.0953837622) y8))))) 
(and (or (<= (+ x8 0.0943603238) x11) (or (<= (+ x11 0.588476938) x8) (or (>= (- y8 0.313745843) y11) (or (>= (- y11 0.0061619872) y8))))) 
(and (or (<= (+ x9 0.0950543053) x10) (or (<= (+ x10 0.2334907436) x9) (or (>= (- y9 0.1278696259) y10) (or (>= (- y10 0.0953837622) y9))))) 
(and (or (<= (+ x9 0.0950543053) x11) (or (<= (+ x11 0.588476938) x9) (or (>= (- y9 0.1278696259) y11) (or (>= (- y11 0.0061619872) y9))))) 
(and (or (<= (+ x10 0.2334907436) x11) (or (<= (+ x11 0.588476938) x10) (or (>= (- y10 0.0953837622) y11) (or (>= (- y11 0.0061619872) y10))))) )))))))))))))))))))))))))))))))))))))))))))))))))))))))))))))))))))))))))))))))))))))))))))))))))))))))))))))))))))))))))))))))))))))))))))))))))))))))))))
(minimize c)
(check-sat)
(get-objectives)
(exit)
